File "./GRP011-4/SMT.v", line 6, characters 0-15:
Warning: Interpreting this declaration as if a global declaration prefixed by
"Local", i.e. as a global declaration which shall not be available without
qualification when imported. [local-declaration,vernacular,default]
File "./GRP011-4/SMT.v", line 7, characters 0-15:
Warning: Interpreting this declaration as if a global declaration prefixed by
"Local", i.e. as a global declaration which shall not be available without
qualification when imported. [local-declaration,vernacular,default]
File "./GRP011-4/SMT.v", line 8, characters 0-15:
Warning: Interpreting this declaration as if a global declaration prefixed by
"Local", i.e. as a global declaration which shall not be available without
qualification when imported. [local-declaration,vernacular,default]
File "./GRP011-4/SMT.v", line 9, characters 0-22:
Warning: Interpreting this declaration as if a global declaration prefixed by
"Local", i.e. as a global declaration which shall not be available without
qualification when imported. [local-declaration,vernacular,default]
File "./GRP011-4/SMT.v", line 10, characters 0-26:
Warning: Interpreting this declaration as if a global declaration prefixed by
"Local", i.e. as a global declaration which shall not be available without
qualification when imported. [local-declaration,vernacular,default]
File "./GRP011-4/SMT.v", line 11, characters 0-32:
Warning: Interpreting this declaration as if a global declaration prefixed by
"Local", i.e. as a global declaration which shall not be available without
qualification when imported. [local-declaration,vernacular,default]
veriT --proof-prune --proof-merge --proof-with-sharing --cnf-definitional --disable-ackermann --input=smtlib2 --proof=/tmp/verit_coqe76b7b.vtlog /tmp/verit_coqe76b7b.smt2 2> /tmp/warnings_verit0c0854.log
veriT dev - the SMT-solver veriT (UFRN/LORIA).
success
success
success
success
success
success
success
success
success
success
success
success
unknown
success
success
Verit = 0.00006
(set-option :print-success true)
(set-option :produce-assignments true)
(set-option :produce-proofs true)
(set-logic QF_UFLIA)
(declare-fun op_1 () Int)
(declare-fun op_0 () Int)
(assert (not (= op_0 op_1)))
(check-sat)
(get-model)
File "./GRP011-4/SMT.v", line 22, characters 2-5:
Error: CVC4 returned sat. Here is the model:

b := 1
d := 0

